RLT08
Position Depot: Center
Horizon for Depot: Large
Position of customers: Random
Distribution of the demand: Small
Width of time windows: Tight
Distribution of the service: Small

VEHICLE 
NUMBER 	 CAPACITY 
 12 	 	 30 
 
CUSTOMER
CUST NO. 	 XCOORD.  	 YCOORD. 	 DEMAND 	 READY TIME 	 DUE DATE 	 SERVICE TIME 
 0 	 	 500 	 	 500 	 	 0 	 	 0 	 	 2606 	 	 0 
  1 	 	 172 	 	 913 	 	 10 	 	 1099 	 	 1202 	 	 100 
  2 	 	 439 	 	 296 	 	 10 	 	 644 	 	 705 	 	 52 
  3 	 	 509 	 	 399 	 	 9 	 	 382 	 	 529 	 	 68 
  4 	 	 446 	 	 931 	 	 5 	 	 870 	 	 1005 	 	 76 
  5 	 	 601 	 	 589 	 	 8 	 	 2406 	 	 2508 	 	 87 
  6 	 	 523 	 	 690 	 	 5 	 	 1301 	 	 1454 	 	 91 
  7 	 	 183 	 	 799 	 	 6 	 	 2031 	 	 2205 	 	 54 
  8 	 	 821 	 	 654 	 	 8 	 	 1565 	 	 1670 	 	 66 
  9 	 	 796 	 	 1 	 	 7 	 	 522 	 	 638 	 	 99 
  10 	 	 87 	 	 184 	 	 9 	 	 952 	 	 1116 	 	 94 
  11 	 	 445 	 	 312 	 	 5 	 	 1185 	 	 1248 	 	 80 
  12 	 	 179 	 	 836 	 	 7 	 	 2195 	 	 2298 	 	 58 
  13 	 	 43 	 	 689 	 	 8 	 	 2230 	 	 2282 	 	 86 
  14 	 	 515 	 	 304 	 	 5 	 	 1494 	 	 1631 	 	 56 
  15 	 	 262 	 	 165 	 	 9 	 	 784 	 	 852 	 	 61 
  16 	 	 799 	 	 718 	 	 10 	 	 2292 	 	 2438 	 	 83 
  17 	 	 580 	 	 739 	 	 5 	 	 825 	 	 978 	 	 93 
  18 	 	 18 	 	 687 	 	 5 	 	 2083 	 	 2239 	 	 98 
  19 	 	 631 	 	 817 	 	 6 	 	 226 	 	 377 	 	 91 
  20 	 	 424 	 	 195 	 	 6 	 	 872 	 	 945 	 	 89 
  21 	 	 462 	 	 552 	 	 9 	 	 1312 	 	 1426 	 	 62 
  22 	 	 519 	 	 610 	 	 7 	 	 1534 	 	 1647 	 	 92 
  23 	 	 299 	 	 634 	 	 7 	 	 543 	 	 661 	 	 73 
  24 	 	 592 	 	 742 	 	 7 	 	 1996 	 	 2102 	 	 99 
  25 	 	 880 	 	 193 	 	 9 	 	 461 	 	 537 	 	 63 
  26 	 	 282 	 	 172 	 	 10 	 	 1266 	 	 1372 	 	 60 
  27 	 	 669 	 	 660 	 	 5 	 	 2439 	 	 2545 	 	 74 
  28 	 	 268 	 	 263 	 	 6 	 	 2490 	 	 2606 	 	 74 
  29 	 	 42 	 	 786 	 	 5 	 	 541 	 	 718 	 	 77 
  30 	 	 308 	 	 973 	 	 7 	 	 1590 	 	 1731 	 	 89 
  31 	 	 202 	 	 293 	 	 7 	 	 995 	 	 1168 	 	 89 
  32 	 	 156 	 	 803 	 	 9 	 	 1417 	 	 1503 	 	 74 
  33 	 	 62 	 	 73 	 	 7 	 	 496 	 	 672 	 	 63 
  34 	 	 464 	 	 884 	 	 7 	 	 306 	 	 424 	 	 71 
  35 	 	 863 	 	 4 	 	 10 	 	 2430 	 	 2606 	 	 100 
  36 	 	 441 	 	 835 	 	 8 	 	 1663 	 	 1806 	 	 88 
  37 	 	 737 	 	 497 	 	 6 	 	 1696 	 	 1846 	 	 68 
  38 	 	 910 	 	 98 	 	 5 	 	 591 	 	 727 	 	 73 
  39 	 	 582 	 	 439 	 	 10 	 	 1523 	 	 1604 	 	 74 
  40 	 	 53 	 	 444 	 	 9 	 	 784 	 	 862 	 	 64 
  41 	 	 879 	 	 704 	 	 8 	 	 1524 	 	 1618 	 	 93 
  42 	 	 136 	 	 225 	 	 9 	 	 363 	 	 501 	 	 70 
  43 	 	 517 	 	 450 	 	 6 	 	 1462 	 	 1635 	 	 86 
  44 	 	 983 	 	 188 	 	 5 	 	 2012 	 	 2112 	 	 93 
  45 	 	 255 	 	 781 	 	 6 	 	 429 	 	 549 	 	 85 
  46 	 	 13 	 	 5 	 	 7 	 	 1117 	 	 1221 	 	 53 
  47 	 	 955 	 	 319 	 	 10 	 	 565 	 	 647 	 	 54 
  48 	 	 735 	 	 160 	 	 9 	 	 1653 	 	 1771 	 	 98 
  49 	 	 829 	 	 133 	 	 5 	 	 745 	 	 836 	 	 88 
  50 	 	 426 	 	 221 	 	 8 	 	 2128 	 	 2303 	 	 61 
 